&CONTROL
	calculation	=	'scf'
	restart_mode	=	'from_scratch'
	prefix		=	'elstruct'
	outdir		=	'./elstruct/'
	pseudo_dir	=	'./PSEUDO'
	wf_collect	=	.true.
	max_seconds	=	86000
	nstep		=	500
/
&SYSTEM
	ibrav		=	4
	celldm(1)	=	22.677        ! in Bohr a=12 ang
	celldm(3)	=	0.204648      !	c~2.45, dall'ott strut, coerente con coord
	nat		=	12
	ntyp		=	1
	ecutwfc		=	45
	ecutrho		=	320
	occupations	=	'smearing'
	smearing	=	'mv'
	degauss		=	0.004
	vdw_corr	=	'grimme-d2'
/
&ELECTRONS
        electron_maxstep        =       200
        mixing_beta             =       0.2
        conv_thr                =       1.0d-7
/
&IONS
/
&CELL
/
ATOMIC_SPECIES
C       12.01        C.pbesol-n-rrkjus_psl.1.0.0.UPF
K_POINTS {automatic}
1 1 5  0 0 0
ATOMIC_POSITIONS {angstrom}
C             2.0963968856       -0.0010799482       -0.0010353136
C             1.6054425343        1.3486251249       -0.0010368308
C             1.0493147909        1.8151801986        1.2269310916
C            -0.3650839462        2.0645799462        1.2269314048
C            -1.0471566920        1.8161297202       -0.0010358774
C            -1.9704088206        0.7159716827       -0.0010360447
C            -2.0964030730        0.0010786202        1.2269313861
C            -1.6054425165       -1.3486205735        1.2269327710
C            -1.0493129782       -1.8151742978       -0.0010350833
C             0.3650878477       -2.0645822419       -0.0010354744
C             1.0471609666       -1.8161344707        1.2269319064
C             1.9704050014       -0.7159737607        1.2269320528
